Problem:    maraton
Rows:       15
Columns:    25 (25 integer, 0 binary)
Non-zeros:  90
Status:     INTEGER OPTIMAL
Objective:  cost = 17 (MINimum)

   No.   Row name        Activity     Lower bound   Upper bound
------ ------------    ------------- ------------- -------------
     1 setFirstArrival[1]
                                   7             7             = 
     2 setArrival[2]
                                  -8            -8             = 
     3 setArrival[3]
                                  -8            -8             = 
     4 setArrival[4]
                                  -8            -8             = 
     5 setArrival[5]
                                  -8            -8             = 
     6 dontOverBuy[1]
                                  13                          15 
     7 dontOverBuy[2]
                                  11                          15 
     8 dontOverBuy[3]
                                  15                          15 
     9 dontOverBuy[4]
                                   8                          15 
    10 dontOverBuy[5]
                                   0                          15 
    11 toReachNext[1]
                                  13             8               
    12 toReachNext[2]
                                  11             8               
    13 toReachNext[3]
                                  15             8               
    14 toReachNext[4]
                                   8             8               
    15 cost                       17                             

   No. Column name       Activity     Lower bound   Upper bound
------ ------------    ------------- ------------- -------------
     1 tobuy[1,water]
                    *              0             0               
     2 tobuy[1,gatorade]
                    *              0             0               
     3 tobuy[1,schokolade]
                    *              0             0               
     4 tobuy[1,gel] *              1             0               
     5 tobuy[2,water]
                    *              0             0               
     6 tobuy[2,gatorade]
                    *              0             0               
     7 tobuy[2,schokolade]
                    *              0             0               
     8 tobuy[2,gel] *              1             0               
     9 tobuy[3,water]
                    *              0             0               
    10 tobuy[3,gatorade]
                    *              0             0               
    11 tobuy[3,schokolade]
                    *              0             0               
    12 tobuy[3,gel] *              2             0               
    13 tobuy[4,water]
                    *              1             0               
    14 tobuy[4,gatorade]
                    *              0             0               
    15 tobuy[4,schokolade]
                    *              0             0               
    16 tobuy[4,gel] *              0             0               
    17 tobuy[5,water]
                    *              0             0               
    18 tobuy[5,gatorade]
                    *              0             0               
    19 tobuy[5,schokolade]
                    *              0             0               
    20 tobuy[5,gel] *              0             0               
    21 wellnessatarrival[1]
                    *              7             0               
    22 wellnessatarrival[2]
                    *              5             0               
    23 wellnessatarrival[3]
                    *              3             0               
    24 wellnessatarrival[4]
                    *              7             0               
    25 wellnessatarrival[5]
                    *              0             0               

Integer feasibility conditions:

KKT.PE: max.abs.err = 0.00e+00 on row 0
        max.rel.err = 0.00e+00 on row 0
        High quality

KKT.PB: max.abs.err = 0.00e+00 on row 0
        max.rel.err = 0.00e+00 on row 0
        High quality

End of output
